c cvc-plus_4
c i 2  6  12  20  3  7  13  21  5  11  19  27  0
c 2  : (a_12)[0]
c 3  : (b_13)[0]
c 4  : n1470
c 5  : (c_14)[0]
c 6  : (a_12)[1]
c 7  : (b_13)[1]
c 8  : n1475
c 9  : n1472
c 10  : n1501
c 11  : (c_14)[1]
c 12  : (a_12)[2]
c 13  : (b_13)[2]
c 14  : n1480
c 15  : n1477
c 16  : n1504
c 17  : n1505
c 18  : n1506
c 19  : (c_14)[2]
c 20  : (a_12)[3]
c 21  : (b_13)[3]
c 22  : n1485
c 23  : n1482
c 24  : n1508
c 25  : n1509
c 26  : n1510
c 27  : (c_14)[3]
p cnf 26 58
2  3  -4  0
-2  -3  -4  0
2  -3  4  0
-2  3  4  0
-4  5  0
4  -5  0
6  7  -8  0
-6  -7  -8  0
6  -7  8  0
-6  7  8  0
2  -9  0
3  -9  0
-2  -3  9  0
8  9  -10  0
-8  -9  -10  0
8  -9  10  0
-8  9  10  0
-10  11  0
10  -11  0
12  13  -14  0
-12  -13  -14  0
12  -13  14  0
-12  13  14  0
6  -15  0
7  -15  0
-6  -7  15  0
8  -16  0
2  -16  0
3  -16  0
-2  -3  -8  16  0
-15  17  0
-16  17  0
15  16  -17  0
14  17  -18  0
-14  -17  -18  0
14  -17  18  0
-14  17  18  0
-18  19  0
18  -19  0
20  21  -22  0
-20  -21  -22  0
20  -21  22  0
-20  21  22  0
12  -23  0
13  -23  0
-12  -13  23  0
14  -24  0
17  -24  0
-14  -17  24  0
-23  25  0
-24  25  0
23  24  -25  0
22  25  -26  0
-22  -25  -26  0
22  -25  26  0
-22  25  26  0
-26  27  0
26  -27  0
